T = 150;
V = 20;
Q = 15;
L = 11;
C = 9;
P = 20;
time = [|  0,  4,  0,  0,  6, 20, 14, 29, 29, 10, 24,  8,  6, 14, 29, 29,  6,  6, 29, 20, 20, 10,  4, 29,  8,  0,  0,  4, 20, 14,  6,  6,  8,  8, 14,  4,  8,  8, 20, 25, 17, 17, 17, 17, 17, 17, 17, 17, 17, 17, 17, 17, 17, 17, 17, 17, 17, 17, 17, 17, 17, 17, 17, 17, 17, 17, 17, 17, 17, 17, 17, 17, 17, 17, 17, 17, 17, 17, 17, 17,
        |  4,  0,  4,  4,  7, 22, 17, 30, 29,  7, 27,  8,  7, 17, 30, 30,  7,  7, 30, 22, 22,  7,  0, 30,  8,  4,  4,  0, 22, 17,  7,  7,  8,  8, 17,  0,  8,  8, 22, 25, 18, 18, 18, 18, 18, 18, 18, 18, 18, 18, 18, 18, 18, 18, 18, 18, 18, 18, 18, 18, 18, 18, 18, 18, 18, 18, 18, 18, 18, 18, 18, 18, 18, 18, 18, 18, 18, 18, 18, 18,
        |  0,  4,  0,  0,  6, 20, 14, 29, 29, 10, 24,  8,  6, 14, 29, 29,  6,  6, 29, 20, 20, 10,  4, 29,  8,  0,  0,  4, 20, 14,  6,  6,  8,  8, 14,  4,  8,  8, 20, 25, 17, 17, 17, 17, 17, 17, 17, 17, 17, 17, 17, 17, 17, 17, 17, 17, 17, 17, 17, 17, 17, 17, 17, 17, 17, 17, 17, 17, 17, 17, 17, 17, 17, 17, 17, 17, 17, 17, 17, 17,
        |  0,  4,  0,  0,  6, 20, 14, 29, 29, 10, 24,  8,  6, 14, 29, 29,  6,  6, 29, 20, 20, 10,  4, 29,  8,  0,  0,  4, 20, 14,  6,  6,  8,  8, 14,  4,  8,  8, 20, 25, 17, 17, 17, 17, 17, 17, 17, 17, 17, 17, 17, 17, 17, 17, 17, 17, 17, 17, 17, 17, 17, 17, 17, 17, 17, 17, 17, 17, 17, 17, 17, 17, 17, 17, 17, 17, 17, 17, 17, 17,
        |  6,  7,  6,  6,  0, 26, 19, 34, 34, 12, 28,  3,  0, 19, 34, 34,  0,  0, 34, 26, 26, 12,  7, 34,  3,  6,  6,  7, 26, 19,  0,  0,  3,  3, 19,  7,  3,  3, 26, 30, 23, 23, 23, 23, 23, 23, 23, 23, 23, 23, 23, 23, 23, 23, 23, 23, 23, 23, 23, 23, 23, 23, 23, 23, 23, 23, 23, 23, 23, 23, 23, 23, 23, 23, 23, 23, 23, 23, 23, 23,
        | 20, 22, 20, 20, 26,  0,  9,  9, 15, 25, 13, 28, 26,  9,  9,  9, 26, 26,  9,  0,  0, 25, 22,  9, 28, 20, 20, 22,  0,  9, 26, 26, 28, 28,  9, 22, 28, 28,  0, 10, 11, 11, 11, 11, 11, 11, 11, 11, 11, 11, 11, 11, 11, 11, 11, 11, 11, 11, 11, 11, 11, 11, 11, 11, 11, 11, 11, 11, 11, 11, 11, 11, 11, 11, 11, 11, 11, 11, 11, 11,
        | 14, 17, 14, 14, 19,  9,  0, 17, 22, 21, 11, 21, 19,  0, 17, 17, 19, 19, 17,  9,  9, 21, 17, 17, 21, 14, 14, 17,  9,  0, 19, 19, 21, 21,  0, 17, 21, 21,  9, 17, 13, 13, 13, 13, 13, 13, 13, 13, 13, 13, 13, 13, 13, 13, 13, 13, 13, 13, 13, 13, 13, 13, 13, 13, 13, 13, 13, 13, 13, 13, 13, 13, 13, 13, 13, 13, 13, 13, 13, 13,
        | 29, 30, 29, 29, 34,  9, 17,  0, 13, 33, 17, 37, 34, 17,  0,  0, 34, 34,  0,  9,  9, 33, 30,  0, 37, 29, 29, 30,  9, 17, 34, 34, 37, 37, 17, 30, 37, 37,  9, 10, 16, 16, 16, 16, 16, 16, 16, 16, 16, 16, 16, 16, 16, 16, 16, 16, 16, 16, 16, 16, 16, 16, 16, 16, 16, 16, 16, 16, 16, 16, 16, 16, 16, 16, 16, 16, 16, 16, 16, 16,
        | 29, 29, 29, 29, 34, 15, 22, 13,  0, 28, 27, 36, 34, 22, 13, 13, 34, 34, 13, 15, 15, 28, 29, 13, 36, 29, 29, 29, 15, 22, 34, 34, 36, 36, 22, 29, 36, 36, 15,  5, 12, 12, 12, 12, 12, 12, 12, 12, 12, 12, 12, 12, 12, 12, 12, 12, 12, 12, 12, 12, 12, 12, 12, 12, 12, 12, 12, 12, 12, 12, 12, 12, 12, 12, 12, 12, 12, 12, 12, 12,
        | 10,  7, 10, 10, 12, 25, 21, 33, 28,  0, 32, 13, 12, 21, 33, 33, 12, 12, 33, 25, 25,  0,  7, 33, 13, 10, 10,  7, 25, 21, 12, 12, 13, 13, 21,  7, 13, 13, 25, 26, 17, 17, 17, 17, 17, 17, 17, 17, 17, 17, 17, 17, 17, 17, 17, 17, 17, 17, 17, 17, 17, 17, 17, 17, 17, 17, 17, 17, 17, 17, 17, 17, 17, 17, 17, 17, 17, 17, 17, 17,
        | 24, 27, 24, 24, 28, 13, 11, 17, 27, 32,  0, 30, 28, 11, 17, 17, 28, 28, 17, 13, 13, 32, 27, 17, 30, 24, 24, 27, 13, 11, 28, 28, 30, 30, 11, 27, 30, 30, 13, 22, 22, 22, 22, 22, 22, 22, 22, 22, 22, 22, 22, 22, 22, 22, 22, 22, 22, 22, 22, 22, 22, 22, 22, 22, 22, 22, 22, 22, 22, 22, 22, 22, 22, 22, 22, 22, 22, 22, 22, 22,
        |  8,  8,  8,  8,  3, 28, 21, 37, 36, 13, 30,  0,  3, 21, 37, 37,  3,  3, 37, 28, 28, 13,  8, 37,  0,  8,  8,  8, 28, 21,  3,  3,  0,  0, 21,  8,  0,  0, 28, 32, 25, 25, 25, 25, 25, 25, 25, 25, 25, 25, 25, 25, 25, 25, 25, 25, 25, 25, 25, 25, 25, 25, 25, 25, 25, 25, 25, 25, 25, 25, 25, 25, 25, 25, 25, 25, 25, 25, 25, 25,
        |  6,  7,  6,  6,  0, 26, 19, 34, 34, 12, 28,  3,  0, 19, 34, 34,  0,  0, 34, 26, 26, 12,  7, 34,  3,  6,  6,  7, 26, 19,  0,  0,  3,  3, 19,  7,  3,  3, 26, 30, 23, 23, 23, 23, 23, 23, 23, 23, 23, 23, 23, 23, 23, 23, 23, 23, 23, 23, 23, 23, 23, 23, 23, 23, 23, 23, 23, 23, 23, 23, 23, 23, 23, 23, 23, 23, 23, 23, 23, 23,
        | 14, 17, 14, 14, 19,  9,  0, 17, 22, 21, 11, 21, 19,  0, 17, 17, 19, 19, 17,  9,  9, 21, 17, 17, 21, 14, 14, 17,  9,  0, 19, 19, 21, 21,  0, 17, 21, 21,  9, 17, 13, 13, 13, 13, 13, 13, 13, 13, 13, 13, 13, 13, 13, 13, 13, 13, 13, 13, 13, 13, 13, 13, 13, 13, 13, 13, 13, 13, 13, 13, 13, 13, 13, 13, 13, 13, 13, 13, 13, 13,
        | 29, 30, 29, 29, 34,  9, 17,  0, 13, 33, 17, 37, 34, 17,  0,  0, 34, 34,  0,  9,  9, 33, 30,  0, 37, 29, 29, 30,  9, 17, 34, 34, 37, 37, 17, 30, 37, 37,  9, 10, 16, 16, 16, 16, 16, 16, 16, 16, 16, 16, 16, 16, 16, 16, 16, 16, 16, 16, 16, 16, 16, 16, 16, 16, 16, 16, 16, 16, 16, 16, 16, 16, 16, 16, 16, 16, 16, 16, 16, 16,
        | 29, 30, 29, 29, 34,  9, 17,  0, 13, 33, 17, 37, 34, 17,  0,  0, 34, 34,  0,  9,  9, 33, 30,  0, 37, 29, 29, 30,  9, 17, 34, 34, 37, 37, 17, 30, 37, 37,  9, 10, 16, 16, 16, 16, 16, 16, 16, 16, 16, 16, 16, 16, 16, 16, 16, 16, 16, 16, 16, 16, 16, 16, 16, 16, 16, 16, 16, 16, 16, 16, 16, 16, 16, 16, 16, 16, 16, 16, 16, 16,
        |  6,  7,  6,  6,  0, 26, 19, 34, 34, 12, 28,  3,  0, 19, 34, 34,  0,  0, 34, 26, 26, 12,  7, 34,  3,  6,  6,  7, 26, 19,  0,  0,  3,  3, 19,  7,  3,  3, 26, 30, 23, 23, 23, 23, 23, 23, 23, 23, 23, 23, 23, 23, 23, 23, 23, 23, 23, 23, 23, 23, 23, 23, 23, 23, 23, 23, 23, 23, 23, 23, 23, 23, 23, 23, 23, 23, 23, 23, 23, 23,
        |  6,  7,  6,  6,  0, 26, 19, 34, 34, 12, 28,  3,  0, 19, 34, 34,  0,  0, 34, 26, 26, 12,  7, 34,  3,  6,  6,  7, 26, 19,  0,  0,  3,  3, 19,  7,  3,  3, 26, 30, 23, 23, 23, 23, 23, 23, 23, 23, 23, 23, 23, 23, 23, 23, 23, 23, 23, 23, 23, 23, 23, 23, 23, 23, 23, 23, 23, 23, 23, 23, 23, 23, 23, 23, 23, 23, 23, 23, 23, 23,
        | 29, 30, 29, 29, 34,  9, 17,  0, 13, 33, 17, 37, 34, 17,  0,  0, 34, 34,  0,  9,  9, 33, 30,  0, 37, 29, 29, 30,  9, 17, 34, 34, 37, 37, 17, 30, 37, 37,  9, 10, 16, 16, 16, 16, 16, 16, 16, 16, 16, 16, 16, 16, 16, 16, 16, 16, 16, 16, 16, 16, 16, 16, 16, 16, 16, 16, 16, 16, 16, 16, 16, 16, 16, 16, 16, 16, 16, 16, 16, 16,
        | 20, 22, 20, 20, 26,  0,  9,  9, 15, 25, 13, 28, 26,  9,  9,  9, 26, 26,  9,  0,  0, 25, 22,  9, 28, 20, 20, 22,  0,  9, 26, 26, 28, 28,  9, 22, 28, 28,  0, 10, 11, 11, 11, 11, 11, 11, 11, 11, 11, 11, 11, 11, 11, 11, 11, 11, 11, 11, 11, 11, 11, 11, 11, 11, 11, 11, 11, 11, 11, 11, 11, 11, 11, 11, 11, 11, 11, 11, 11, 11,
        | 20, 22, 20, 20, 26,  0,  9,  9, 15, 25, 13, 28, 26,  9,  9,  9, 26, 26,  9,  0,  0, 25, 22,  9, 28, 20, 20, 22,  0,  9, 26, 26, 28, 28,  9, 22, 28, 28,  0, 10, 11, 11, 11, 11, 11, 11, 11, 11, 11, 11, 11, 11, 11, 11, 11, 11, 11, 11, 11, 11, 11, 11, 11, 11, 11, 11, 11, 11, 11, 11, 11, 11, 11, 11, 11, 11, 11, 11, 11, 11,
        | 10,  7, 10, 10, 12, 25, 21, 33, 28,  0, 32, 13, 12, 21, 33, 33, 12, 12, 33, 25, 25,  0,  7, 33, 13, 10, 10,  7, 25, 21, 12, 12, 13, 13, 21,  7, 13, 13, 25, 26, 17, 17, 17, 17, 17, 17, 17, 17, 17, 17, 17, 17, 17, 17, 17, 17, 17, 17, 17, 17, 17, 17, 17, 17, 17, 17, 17, 17, 17, 17, 17, 17, 17, 17, 17, 17, 17, 17, 17, 17,
        |  4,  0,  4,  4,  7, 22, 17, 30, 29,  7, 27,  8,  7, 17, 30, 30,  7,  7, 30, 22, 22,  7,  0, 30,  8,  4,  4,  0, 22, 17,  7,  7,  8,  8, 17,  0,  8,  8, 22, 25, 18, 18, 18, 18, 18, 18, 18, 18, 18, 18, 18, 18, 18, 18, 18, 18, 18, 18, 18, 18, 18, 18, 18, 18, 18, 18, 18, 18, 18, 18, 18, 18, 18, 18, 18, 18, 18, 18, 18, 18,
        | 29, 30, 29, 29, 34,  9, 17,  0, 13, 33, 17, 37, 34, 17,  0,  0, 34, 34,  0,  9,  9, 33, 30,  0, 37, 29, 29, 30,  9, 17, 34, 34, 37, 37, 17, 30, 37, 37,  9, 10, 16, 16, 16, 16, 16, 16, 16, 16, 16, 16, 16, 16, 16, 16, 16, 16, 16, 16, 16, 16, 16, 16, 16, 16, 16, 16, 16, 16, 16, 16, 16, 16, 16, 16, 16, 16, 16, 16, 16, 16,
        |  8,  8,  8,  8,  3, 28, 21, 37, 36, 13, 30,  0,  3, 21, 37, 37,  3,  3, 37, 28, 28, 13,  8, 37,  0,  8,  8,  8, 28, 21,  3,  3,  0,  0, 21,  8,  0,  0, 28, 32, 25, 25, 25, 25, 25, 25, 25, 25, 25, 25, 25, 25, 25, 25, 25, 25, 25, 25, 25, 25, 25, 25, 25, 25, 25, 25, 25, 25, 25, 25, 25, 25, 25, 25, 25, 25, 25, 25, 25, 25,
        |  0,  4,  0,  0,  6, 20, 14, 29, 29, 10, 24,  8,  6, 14, 29, 29,  6,  6, 29, 20, 20, 10,  4, 29,  8,  0,  0,  4, 20, 14,  6,  6,  8,  8, 14,  4,  8,  8, 20, 25, 17, 17, 17, 17, 17, 17, 17, 17, 17, 17, 17, 17, 17, 17, 17, 17, 17, 17, 17, 17, 17, 17, 17, 17, 17, 17, 17, 17, 17, 17, 17, 17, 17, 17, 17, 17, 17, 17, 17, 17,
        |  0,  4,  0,  0,  6, 20, 14, 29, 29, 10, 24,  8,  6, 14, 29, 29,  6,  6, 29, 20, 20, 10,  4, 29,  8,  0,  0,  4, 20, 14,  6,  6,  8,  8, 14,  4,  8,  8, 20, 25, 17, 17, 17, 17, 17, 17, 17, 17, 17, 17, 17, 17, 17, 17, 17, 17, 17, 17, 17, 17, 17, 17, 17, 17, 17, 17, 17, 17, 17, 17, 17, 17, 17, 17, 17, 17, 17, 17, 17, 17,
        |  4,  0,  4,  4,  7, 22, 17, 30, 29,  7, 27,  8,  7, 17, 30, 30,  7,  7, 30, 22, 22,  7,  0, 30,  8,  4,  4,  0, 22, 17,  7,  7,  8,  8, 17,  0,  8,  8, 22, 25, 18, 18, 18, 18, 18, 18, 18, 18, 18, 18, 18, 18, 18, 18, 18, 18, 18, 18, 18, 18, 18, 18, 18, 18, 18, 18, 18, 18, 18, 18, 18, 18, 18, 18, 18, 18, 18, 18, 18, 18,
        | 20, 22, 20, 20, 26,  0,  9,  9, 15, 25, 13, 28, 26,  9,  9,  9, 26, 26,  9,  0,  0, 25, 22,  9, 28, 20, 20, 22,  0,  9, 26, 26, 28, 28,  9, 22, 28, 28,  0, 10, 11, 11, 11, 11, 11, 11, 11, 11, 11, 11, 11, 11, 11, 11, 11, 11, 11, 11, 11, 11, 11, 11, 11, 11, 11, 11, 11, 11, 11, 11, 11, 11, 11, 11, 11, 11, 11, 11, 11, 11,
        | 14, 17, 14, 14, 19,  9,  0, 17, 22, 21, 11, 21, 19,  0, 17, 17, 19, 19, 17,  9,  9, 21, 17, 17, 21, 14, 14, 17,  9,  0, 19, 19, 21, 21,  0, 17, 21, 21,  9, 17, 13, 13, 13, 13, 13, 13, 13, 13, 13, 13, 13, 13, 13, 13, 13, 13, 13, 13, 13, 13, 13, 13, 13, 13, 13, 13, 13, 13, 13, 13, 13, 13, 13, 13, 13, 13, 13, 13, 13, 13,
        |  6,  7,  6,  6,  0, 26, 19, 34, 34, 12, 28,  3,  0, 19, 34, 34,  0,  0, 34, 26, 26, 12,  7, 34,  3,  6,  6,  7, 26, 19,  0,  0,  3,  3, 19,  7,  3,  3, 26, 30, 23, 23, 23, 23, 23, 23, 23, 23, 23, 23, 23, 23, 23, 23, 23, 23, 23, 23, 23, 23, 23, 23, 23, 23, 23, 23, 23, 23, 23, 23, 23, 23, 23, 23, 23, 23, 23, 23, 23, 23,
        |  6,  7,  6,  6,  0, 26, 19, 34, 34, 12, 28,  3,  0, 19, 34, 34,  0,  0, 34, 26, 26, 12,  7, 34,  3,  6,  6,  7, 26, 19,  0,  0,  3,  3, 19,  7,  3,  3, 26, 30, 23, 23, 23, 23, 23, 23, 23, 23, 23, 23, 23, 23, 23, 23, 23, 23, 23, 23, 23, 23, 23, 23, 23, 23, 23, 23, 23, 23, 23, 23, 23, 23, 23, 23, 23, 23, 23, 23, 23, 23,
        |  8,  8,  8,  8,  3, 28, 21, 37, 36, 13, 30,  0,  3, 21, 37, 37,  3,  3, 37, 28, 28, 13,  8, 37,  0,  8,  8,  8, 28, 21,  3,  3,  0,  0, 21,  8,  0,  0, 28, 32, 25, 25, 25, 25, 25, 25, 25, 25, 25, 25, 25, 25, 25, 25, 25, 25, 25, 25, 25, 25, 25, 25, 25, 25, 25, 25, 25, 25, 25, 25, 25, 25, 25, 25, 25, 25, 25, 25, 25, 25,
        |  8,  8,  8,  8,  3, 28, 21, 37, 36, 13, 30,  0,  3, 21, 37, 37,  3,  3, 37, 28, 28, 13,  8, 37,  0,  8,  8,  8, 28, 21,  3,  3,  0,  0, 21,  8,  0,  0, 28, 32, 25, 25, 25, 25, 25, 25, 25, 25, 25, 25, 25, 25, 25, 25, 25, 25, 25, 25, 25, 25, 25, 25, 25, 25, 25, 25, 25, 25, 25, 25, 25, 25, 25, 25, 25, 25, 25, 25, 25, 25,
        | 14, 17, 14, 14, 19,  9,  0, 17, 22, 21, 11, 21, 19,  0, 17, 17, 19, 19, 17,  9,  9, 21, 17, 17, 21, 14, 14, 17,  9,  0, 19, 19, 21, 21,  0, 17, 21, 21,  9, 17, 13, 13, 13, 13, 13, 13, 13, 13, 13, 13, 13, 13, 13, 13, 13, 13, 13, 13, 13, 13, 13, 13, 13, 13, 13, 13, 13, 13, 13, 13, 13, 13, 13, 13, 13, 13, 13, 13, 13, 13,
        |  4,  0,  4,  4,  7, 22, 17, 30, 29,  7, 27,  8,  7, 17, 30, 30,  7,  7, 30, 22, 22,  7,  0, 30,  8,  4,  4,  0, 22, 17,  7,  7,  8,  8, 17,  0,  8,  8, 22, 25, 18, 18, 18, 18, 18, 18, 18, 18, 18, 18, 18, 18, 18, 18, 18, 18, 18, 18, 18, 18, 18, 18, 18, 18, 18, 18, 18, 18, 18, 18, 18, 18, 18, 18, 18, 18, 18, 18, 18, 18,
        |  8,  8,  8,  8,  3, 28, 21, 37, 36, 13, 30,  0,  3, 21, 37, 37,  3,  3, 37, 28, 28, 13,  8, 37,  0,  8,  8,  8, 28, 21,  3,  3,  0,  0, 21,  8,  0,  0, 28, 32, 25, 25, 25, 25, 25, 25, 25, 25, 25, 25, 25, 25, 25, 25, 25, 25, 25, 25, 25, 25, 25, 25, 25, 25, 25, 25, 25, 25, 25, 25, 25, 25, 25, 25, 25, 25, 25, 25, 25, 25,
        |  8,  8,  8,  8,  3, 28, 21, 37, 36, 13, 30,  0,  3, 21, 37, 37,  3,  3, 37, 28, 28, 13,  8, 37,  0,  8,  8,  8, 28, 21,  3,  3,  0,  0, 21,  8,  0,  0, 28, 32, 25, 25, 25, 25, 25, 25, 25, 25, 25, 25, 25, 25, 25, 25, 25, 25, 25, 25, 25, 25, 25, 25, 25, 25, 25, 25, 25, 25, 25, 25, 25, 25, 25, 25, 25, 25, 25, 25, 25, 25,
        | 20, 22, 20, 20, 26,  0,  9,  9, 15, 25, 13, 28, 26,  9,  9,  9, 26, 26,  9,  0,  0, 25, 22,  9, 28, 20, 20, 22,  0,  9, 26, 26, 28, 28,  9, 22, 28, 28,  0, 10, 11, 11, 11, 11, 11, 11, 11, 11, 11, 11, 11, 11, 11, 11, 11, 11, 11, 11, 11, 11, 11, 11, 11, 11, 11, 11, 11, 11, 11, 11, 11, 11, 11, 11, 11, 11, 11, 11, 11, 11,
        | 25, 25, 25, 25, 30, 10, 17, 10,  5, 26, 22, 32, 30, 17, 10, 10, 30, 30, 10, 10, 10, 26, 25, 10, 32, 25, 25, 25, 10, 17, 30, 30, 32, 32, 17, 25, 32, 32, 10,  0,  9,  9,  9,  9,  9,  9,  9,  9,  9,  9,  9,  9,  9,  9,  9,  9,  9,  9,  9,  9,  9,  9,  9,  9,  9,  9,  9,  9,  9,  9,  9,  9,  9,  9,  9,  9,  9,  9,  9,  9,
        | 17, 18, 17, 17, 23, 11, 13, 16, 12, 17, 22, 25, 23, 13, 16, 16, 23, 23, 16, 11, 11, 17, 18, 16, 25, 17, 17, 18, 11, 13, 23, 23, 25, 25, 13, 18, 25, 25, 11,  9,  0,  0,  0,  0,  0,  0,  0,  0,  0,  0,  0,  0,  0,  0,  0,  0,  0,  0,  0,  0,  0,  0,  0,  0,  0,  0,  0,  0,  0,  0,  0,  0,  0,  0,  0,  0,  0,  0,  0,  0,
        | 17, 18, 17, 17, 23, 11, 13, 16, 12, 17, 22, 25, 23, 13, 16, 16, 23, 23, 16, 11, 11, 17, 18, 16, 25, 17, 17, 18, 11, 13, 23, 23, 25, 25, 13, 18, 25, 25, 11,  9,  0,  0,  0,  0,  0,  0,  0,  0,  0,  0,  0,  0,  0,  0,  0,  0,  0,  0,  0,  0,  0,  0,  0,  0,  0,  0,  0,  0,  0,  0,  0,  0,  0,  0,  0,  0,  0,  0,  0,  0,
        | 17, 18, 17, 17, 23, 11, 13, 16, 12, 17, 22, 25, 23, 13, 16, 16, 23, 23, 16, 11, 11, 17, 18, 16, 25, 17, 17, 18, 11, 13, 23, 23, 25, 25, 13, 18, 25, 25, 11,  9,  0,  0,  0,  0,  0,  0,  0,  0,  0,  0,  0,  0,  0,  0,  0,  0,  0,  0,  0,  0,  0,  0,  0,  0,  0,  0,  0,  0,  0,  0,  0,  0,  0,  0,  0,  0,  0,  0,  0,  0,
        | 17, 18, 17, 17, 23, 11, 13, 16, 12, 17, 22, 25, 23, 13, 16, 16, 23, 23, 16, 11, 11, 17, 18, 16, 25, 17, 17, 18, 11, 13, 23, 23, 25, 25, 13, 18, 25, 25, 11,  9,  0,  0,  0,  0,  0,  0,  0,  0,  0,  0,  0,  0,  0,  0,  0,  0,  0,  0,  0,  0,  0,  0,  0,  0,  0,  0,  0,  0,  0,  0,  0,  0,  0,  0,  0,  0,  0,  0,  0,  0,
        | 17, 18, 17, 17, 23, 11, 13, 16, 12, 17, 22, 25, 23, 13, 16, 16, 23, 23, 16, 11, 11, 17, 18, 16, 25, 17, 17, 18, 11, 13, 23, 23, 25, 25, 13, 18, 25, 25, 11,  9,  0,  0,  0,  0,  0,  0,  0,  0,  0,  0,  0,  0,  0,  0,  0,  0,  0,  0,  0,  0,  0,  0,  0,  0,  0,  0,  0,  0,  0,  0,  0,  0,  0,  0,  0,  0,  0,  0,  0,  0,
        | 17, 18, 17, 17, 23, 11, 13, 16, 12, 17, 22, 25, 23, 13, 16, 16, 23, 23, 16, 11, 11, 17, 18, 16, 25, 17, 17, 18, 11, 13, 23, 23, 25, 25, 13, 18, 25, 25, 11,  9,  0,  0,  0,  0,  0,  0,  0,  0,  0,  0,  0,  0,  0,  0,  0,  0,  0,  0,  0,  0,  0,  0,  0,  0,  0,  0,  0,  0,  0,  0,  0,  0,  0,  0,  0,  0,  0,  0,  0,  0,
        | 17, 18, 17, 17, 23, 11, 13, 16, 12, 17, 22, 25, 23, 13, 16, 16, 23, 23, 16, 11, 11, 17, 18, 16, 25, 17, 17, 18, 11, 13, 23, 23, 25, 25, 13, 18, 25, 25, 11,  9,  0,  0,  0,  0,  0,  0,  0,  0,  0,  0,  0,  0,  0,  0,  0,  0,  0,  0,  0,  0,  0,  0,  0,  0,  0,  0,  0,  0,  0,  0,  0,  0,  0,  0,  0,  0,  0,  0,  0,  0,
        | 17, 18, 17, 17, 23, 11, 13, 16, 12, 17, 22, 25, 23, 13, 16, 16, 23, 23, 16, 11, 11, 17, 18, 16, 25, 17, 17, 18, 11, 13, 23, 23, 25, 25, 13, 18, 25, 25, 11,  9,  0,  0,  0,  0,  0,  0,  0,  0,  0,  0,  0,  0,  0,  0,  0,  0,  0,  0,  0,  0,  0,  0,  0,  0,  0,  0,  0,  0,  0,  0,  0,  0,  0,  0,  0,  0,  0,  0,  0,  0,
        | 17, 18, 17, 17, 23, 11, 13, 16, 12, 17, 22, 25, 23, 13, 16, 16, 23, 23, 16, 11, 11, 17, 18, 16, 25, 17, 17, 18, 11, 13, 23, 23, 25, 25, 13, 18, 25, 25, 11,  9,  0,  0,  0,  0,  0,  0,  0,  0,  0,  0,  0,  0,  0,  0,  0,  0,  0,  0,  0,  0,  0,  0,  0,  0,  0,  0,  0,  0,  0,  0,  0,  0,  0,  0,  0,  0,  0,  0,  0,  0,
        | 17, 18, 17, 17, 23, 11, 13, 16, 12, 17, 22, 25, 23, 13, 16, 16, 23, 23, 16, 11, 11, 17, 18, 16, 25, 17, 17, 18, 11, 13, 23, 23, 25, 25, 13, 18, 25, 25, 11,  9,  0,  0,  0,  0,  0,  0,  0,  0,  0,  0,  0,  0,  0,  0,  0,  0,  0,  0,  0,  0,  0,  0,  0,  0,  0,  0,  0,  0,  0,  0,  0,  0,  0,  0,  0,  0,  0,  0,  0,  0,
        | 17, 18, 17, 17, 23, 11, 13, 16, 12, 17, 22, 25, 23, 13, 16, 16, 23, 23, 16, 11, 11, 17, 18, 16, 25, 17, 17, 18, 11, 13, 23, 23, 25, 25, 13, 18, 25, 25, 11,  9,  0,  0,  0,  0,  0,  0,  0,  0,  0,  0,  0,  0,  0,  0,  0,  0,  0,  0,  0,  0,  0,  0,  0,  0,  0,  0,  0,  0,  0,  0,  0,  0,  0,  0,  0,  0,  0,  0,  0,  0,
        | 17, 18, 17, 17, 23, 11, 13, 16, 12, 17, 22, 25, 23, 13, 16, 16, 23, 23, 16, 11, 11, 17, 18, 16, 25, 17, 17, 18, 11, 13, 23, 23, 25, 25, 13, 18, 25, 25, 11,  9,  0,  0,  0,  0,  0,  0,  0,  0,  0,  0,  0,  0,  0,  0,  0,  0,  0,  0,  0,  0,  0,  0,  0,  0,  0,  0,  0,  0,  0,  0,  0,  0,  0,  0,  0,  0,  0,  0,  0,  0,
        | 17, 18, 17, 17, 23, 11, 13, 16, 12, 17, 22, 25, 23, 13, 16, 16, 23, 23, 16, 11, 11, 17, 18, 16, 25, 17, 17, 18, 11, 13, 23, 23, 25, 25, 13, 18, 25, 25, 11,  9,  0,  0,  0,  0,  0,  0,  0,  0,  0,  0,  0,  0,  0,  0,  0,  0,  0,  0,  0,  0,  0,  0,  0,  0,  0,  0,  0,  0,  0,  0,  0,  0,  0,  0,  0,  0,  0,  0,  0,  0,
        | 17, 18, 17, 17, 23, 11, 13, 16, 12, 17, 22, 25, 23, 13, 16, 16, 23, 23, 16, 11, 11, 17, 18, 16, 25, 17, 17, 18, 11, 13, 23, 23, 25, 25, 13, 18, 25, 25, 11,  9,  0,  0,  0,  0,  0,  0,  0,  0,  0,  0,  0,  0,  0,  0,  0,  0,  0,  0,  0,  0,  0,  0,  0,  0,  0,  0,  0,  0,  0,  0,  0,  0,  0,  0,  0,  0,  0,  0,  0,  0,
        | 17, 18, 17, 17, 23, 11, 13, 16, 12, 17, 22, 25, 23, 13, 16, 16, 23, 23, 16, 11, 11, 17, 18, 16, 25, 17, 17, 18, 11, 13, 23, 23, 25, 25, 13, 18, 25, 25, 11,  9,  0,  0,  0,  0,  0,  0,  0,  0,  0,  0,  0,  0,  0,  0,  0,  0,  0,  0,  0,  0,  0,  0,  0,  0,  0,  0,  0,  0,  0,  0,  0,  0,  0,  0,  0,  0,  0,  0,  0,  0,
        | 17, 18, 17, 17, 23, 11, 13, 16, 12, 17, 22, 25, 23, 13, 16, 16, 23, 23, 16, 11, 11, 17, 18, 16, 25, 17, 17, 18, 11, 13, 23, 23, 25, 25, 13, 18, 25, 25, 11,  9,  0,  0,  0,  0,  0,  0,  0,  0,  0,  0,  0,  0,  0,  0,  0,  0,  0,  0,  0,  0,  0,  0,  0,  0,  0,  0,  0,  0,  0,  0,  0,  0,  0,  0,  0,  0,  0,  0,  0,  0,
        | 17, 18, 17, 17, 23, 11, 13, 16, 12, 17, 22, 25, 23, 13, 16, 16, 23, 23, 16, 11, 11, 17, 18, 16, 25, 17, 17, 18, 11, 13, 23, 23, 25, 25, 13, 18, 25, 25, 11,  9,  0,  0,  0,  0,  0,  0,  0,  0,  0,  0,  0,  0,  0,  0,  0,  0,  0,  0,  0,  0,  0,  0,  0,  0,  0,  0,  0,  0,  0,  0,  0,  0,  0,  0,  0,  0,  0,  0,  0,  0,
        | 17, 18, 17, 17, 23, 11, 13, 16, 12, 17, 22, 25, 23, 13, 16, 16, 23, 23, 16, 11, 11, 17, 18, 16, 25, 17, 17, 18, 11, 13, 23, 23, 25, 25, 13, 18, 25, 25, 11,  9,  0,  0,  0,  0,  0,  0,  0,  0,  0,  0,  0,  0,  0,  0,  0,  0,  0,  0,  0,  0,  0,  0,  0,  0,  0,  0,  0,  0,  0,  0,  0,  0,  0,  0,  0,  0,  0,  0,  0,  0,
        | 17, 18, 17, 17, 23, 11, 13, 16, 12, 17, 22, 25, 23, 13, 16, 16, 23, 23, 16, 11, 11, 17, 18, 16, 25, 17, 17, 18, 11, 13, 23, 23, 25, 25, 13, 18, 25, 25, 11,  9,  0,  0,  0,  0,  0,  0,  0,  0,  0,  0,  0,  0,  0,  0,  0,  0,  0,  0,  0,  0,  0,  0,  0,  0,  0,  0,  0,  0,  0,  0,  0,  0,  0,  0,  0,  0,  0,  0,  0,  0,
        | 17, 18, 17, 17, 23, 11, 13, 16, 12, 17, 22, 25, 23, 13, 16, 16, 23, 23, 16, 11, 11, 17, 18, 16, 25, 17, 17, 18, 11, 13, 23, 23, 25, 25, 13, 18, 25, 25, 11,  9,  0,  0,  0,  0,  0,  0,  0,  0,  0,  0,  0,  0,  0,  0,  0,  0,  0,  0,  0,  0,  0,  0,  0,  0,  0,  0,  0,  0,  0,  0,  0,  0,  0,  0,  0,  0,  0,  0,  0,  0,
        | 17, 18, 17, 17, 23, 11, 13, 16, 12, 17, 22, 25, 23, 13, 16, 16, 23, 23, 16, 11, 11, 17, 18, 16, 25, 17, 17, 18, 11, 13, 23, 23, 25, 25, 13, 18, 25, 25, 11,  9,  0,  0,  0,  0,  0,  0,  0,  0,  0,  0,  0,  0,  0,  0,  0,  0,  0,  0,  0,  0,  0,  0,  0,  0,  0,  0,  0,  0,  0,  0,  0,  0,  0,  0,  0,  0,  0,  0,  0,  0,
        | 17, 18, 17, 17, 23, 11, 13, 16, 12, 17, 22, 25, 23, 13, 16, 16, 23, 23, 16, 11, 11, 17, 18, 16, 25, 17, 17, 18, 11, 13, 23, 23, 25, 25, 13, 18, 25, 25, 11,  9,  0,  0,  0,  0,  0,  0,  0,  0,  0,  0,  0,  0,  0,  0,  0,  0,  0,  0,  0,  0,  0,  0,  0,  0,  0,  0,  0,  0,  0,  0,  0,  0,  0,  0,  0,  0,  0,  0,  0,  0,
        | 17, 18, 17, 17, 23, 11, 13, 16, 12, 17, 22, 25, 23, 13, 16, 16, 23, 23, 16, 11, 11, 17, 18, 16, 25, 17, 17, 18, 11, 13, 23, 23, 25, 25, 13, 18, 25, 25, 11,  9,  0,  0,  0,  0,  0,  0,  0,  0,  0,  0,  0,  0,  0,  0,  0,  0,  0,  0,  0,  0,  0,  0,  0,  0,  0,  0,  0,  0,  0,  0,  0,  0,  0,  0,  0,  0,  0,  0,  0,  0,
        | 17, 18, 17, 17, 23, 11, 13, 16, 12, 17, 22, 25, 23, 13, 16, 16, 23, 23, 16, 11, 11, 17, 18, 16, 25, 17, 17, 18, 11, 13, 23, 23, 25, 25, 13, 18, 25, 25, 11,  9,  0,  0,  0,  0,  0,  0,  0,  0,  0,  0,  0,  0,  0,  0,  0,  0,  0,  0,  0,  0,  0,  0,  0,  0,  0,  0,  0,  0,  0,  0,  0,  0,  0,  0,  0,  0,  0,  0,  0,  0,
        | 17, 18, 17, 17, 23, 11, 13, 16, 12, 17, 22, 25, 23, 13, 16, 16, 23, 23, 16, 11, 11, 17, 18, 16, 25, 17, 17, 18, 11, 13, 23, 23, 25, 25, 13, 18, 25, 25, 11,  9,  0,  0,  0,  0,  0,  0,  0,  0,  0,  0,  0,  0,  0,  0,  0,  0,  0,  0,  0,  0,  0,  0,  0,  0,  0,  0,  0,  0,  0,  0,  0,  0,  0,  0,  0,  0,  0,  0,  0,  0,
        | 17, 18, 17, 17, 23, 11, 13, 16, 12, 17, 22, 25, 23, 13, 16, 16, 23, 23, 16, 11, 11, 17, 18, 16, 25, 17, 17, 18, 11, 13, 23, 23, 25, 25, 13, 18, 25, 25, 11,  9,  0,  0,  0,  0,  0,  0,  0,  0,  0,  0,  0,  0,  0,  0,  0,  0,  0,  0,  0,  0,  0,  0,  0,  0,  0,  0,  0,  0,  0,  0,  0,  0,  0,  0,  0,  0,  0,  0,  0,  0,
        | 17, 18, 17, 17, 23, 11, 13, 16, 12, 17, 22, 25, 23, 13, 16, 16, 23, 23, 16, 11, 11, 17, 18, 16, 25, 17, 17, 18, 11, 13, 23, 23, 25, 25, 13, 18, 25, 25, 11,  9,  0,  0,  0,  0,  0,  0,  0,  0,  0,  0,  0,  0,  0,  0,  0,  0,  0,  0,  0,  0,  0,  0,  0,  0,  0,  0,  0,  0,  0,  0,  0,  0,  0,  0,  0,  0,  0,  0,  0,  0,
        | 17, 18, 17, 17, 23, 11, 13, 16, 12, 17, 22, 25, 23, 13, 16, 16, 23, 23, 16, 11, 11, 17, 18, 16, 25, 17, 17, 18, 11, 13, 23, 23, 25, 25, 13, 18, 25, 25, 11,  9,  0,  0,  0,  0,  0,  0,  0,  0,  0,  0,  0,  0,  0,  0,  0,  0,  0,  0,  0,  0,  0,  0,  0,  0,  0,  0,  0,  0,  0,  0,  0,  0,  0,  0,  0,  0,  0,  0,  0,  0,
        | 17, 18, 17, 17, 23, 11, 13, 16, 12, 17, 22, 25, 23, 13, 16, 16, 23, 23, 16, 11, 11, 17, 18, 16, 25, 17, 17, 18, 11, 13, 23, 23, 25, 25, 13, 18, 25, 25, 11,  9,  0,  0,  0,  0,  0,  0,  0,  0,  0,  0,  0,  0,  0,  0,  0,  0,  0,  0,  0,  0,  0,  0,  0,  0,  0,  0,  0,  0,  0,  0,  0,  0,  0,  0,  0,  0,  0,  0,  0,  0,
        | 17, 18, 17, 17, 23, 11, 13, 16, 12, 17, 22, 25, 23, 13, 16, 16, 23, 23, 16, 11, 11, 17, 18, 16, 25, 17, 17, 18, 11, 13, 23, 23, 25, 25, 13, 18, 25, 25, 11,  9,  0,  0,  0,  0,  0,  0,  0,  0,  0,  0,  0,  0,  0,  0,  0,  0,  0,  0,  0,  0,  0,  0,  0,  0,  0,  0,  0,  0,  0,  0,  0,  0,  0,  0,  0,  0,  0,  0,  0,  0,
        | 17, 18, 17, 17, 23, 11, 13, 16, 12, 17, 22, 25, 23, 13, 16, 16, 23, 23, 16, 11, 11, 17, 18, 16, 25, 17, 17, 18, 11, 13, 23, 23, 25, 25, 13, 18, 25, 25, 11,  9,  0,  0,  0,  0,  0,  0,  0,  0,  0,  0,  0,  0,  0,  0,  0,  0,  0,  0,  0,  0,  0,  0,  0,  0,  0,  0,  0,  0,  0,  0,  0,  0,  0,  0,  0,  0,  0,  0,  0,  0,
        | 17, 18, 17, 17, 23, 11, 13, 16, 12, 17, 22, 25, 23, 13, 16, 16, 23, 23, 16, 11, 11, 17, 18, 16, 25, 17, 17, 18, 11, 13, 23, 23, 25, 25, 13, 18, 25, 25, 11,  9,  0,  0,  0,  0,  0,  0,  0,  0,  0,  0,  0,  0,  0,  0,  0,  0,  0,  0,  0,  0,  0,  0,  0,  0,  0,  0,  0,  0,  0,  0,  0,  0,  0,  0,  0,  0,  0,  0,  0,  0,
        | 17, 18, 17, 17, 23, 11, 13, 16, 12, 17, 22, 25, 23, 13, 16, 16, 23, 23, 16, 11, 11, 17, 18, 16, 25, 17, 17, 18, 11, 13, 23, 23, 25, 25, 13, 18, 25, 25, 11,  9,  0,  0,  0,  0,  0,  0,  0,  0,  0,  0,  0,  0,  0,  0,  0,  0,  0,  0,  0,  0,  0,  0,  0,  0,  0,  0,  0,  0,  0,  0,  0,  0,  0,  0,  0,  0,  0,  0,  0,  0,
        | 17, 18, 17, 17, 23, 11, 13, 16, 12, 17, 22, 25, 23, 13, 16, 16, 23, 23, 16, 11, 11, 17, 18, 16, 25, 17, 17, 18, 11, 13, 23, 23, 25, 25, 13, 18, 25, 25, 11,  9,  0,  0,  0,  0,  0,  0,  0,  0,  0,  0,  0,  0,  0,  0,  0,  0,  0,  0,  0,  0,  0,  0,  0,  0,  0,  0,  0,  0,  0,  0,  0,  0,  0,  0,  0,  0,  0,  0,  0,  0,
        | 17, 18, 17, 17, 23, 11, 13, 16, 12, 17, 22, 25, 23, 13, 16, 16, 23, 23, 16, 11, 11, 17, 18, 16, 25, 17, 17, 18, 11, 13, 23, 23, 25, 25, 13, 18, 25, 25, 11,  9,  0,  0,  0,  0,  0,  0,  0,  0,  0,  0,  0,  0,  0,  0,  0,  0,  0,  0,  0,  0,  0,  0,  0,  0,  0,  0,  0,  0,  0,  0,  0,  0,  0,  0,  0,  0,  0,  0,  0,  0,
        | 17, 18, 17, 17, 23, 11, 13, 16, 12, 17, 22, 25, 23, 13, 16, 16, 23, 23, 16, 11, 11, 17, 18, 16, 25, 17, 17, 18, 11, 13, 23, 23, 25, 25, 13, 18, 25, 25, 11,  9,  0,  0,  0,  0,  0,  0,  0,  0,  0,  0,  0,  0,  0,  0,  0,  0,  0,  0,  0,  0,  0,  0,  0,  0,  0,  0,  0,  0,  0,  0,  0,  0,  0,  0,  0,  0,  0,  0,  0,  0,
        | 17, 18, 17, 17, 23, 11, 13, 16, 12, 17, 22, 25, 23, 13, 16, 16, 23, 23, 16, 11, 11, 17, 18, 16, 25, 17, 17, 18, 11, 13, 23, 23, 25, 25, 13, 18, 25, 25, 11,  9,  0,  0,  0,  0,  0,  0,  0,  0,  0,  0,  0,  0,  0,  0,  0,  0,  0,  0,  0,  0,  0,  0,  0,  0,  0,  0,  0,  0,  0,  0,  0,  0,  0,  0,  0,  0,  0,  0,  0,  0,
        | 17, 18, 17, 17, 23, 11, 13, 16, 12, 17, 22, 25, 23, 13, 16, 16, 23, 23, 16, 11, 11, 17, 18, 16, 25, 17, 17, 18, 11, 13, 23, 23, 25, 25, 13, 18, 25, 25, 11,  9,  0,  0,  0,  0,  0,  0,  0,  0,  0,  0,  0,  0,  0,  0,  0,  0,  0,  0,  0,  0,  0,  0,  0,  0,  0,  0,  0,  0,  0,  0,  0,  0,  0,  0,  0,  0,  0,  0,  0,  0,
        | 17, 18, 17, 17, 23, 11, 13, 16, 12, 17, 22, 25, 23, 13, 16, 16, 23, 23, 16, 11, 11, 17, 18, 16, 25, 17, 17, 18, 11, 13, 23, 23, 25, 25, 13, 18, 25, 25, 11,  9,  0,  0,  0,  0,  0,  0,  0,  0,  0,  0,  0,  0,  0,  0,  0,  0,  0,  0,  0,  0,  0,  0,  0,  0,  0,  0,  0,  0,  0,  0,  0,  0,  0,  0,  0,  0,  0,  0,  0,  0,
        | 17, 18, 17, 17, 23, 11, 13, 16, 12, 17, 22, 25, 23, 13, 16, 16, 23, 23, 16, 11, 11, 17, 18, 16, 25, 17, 17, 18, 11, 13, 23, 23, 25, 25, 13, 18, 25, 25, 11,  9,  0,  0,  0,  0,  0,  0,  0,  0,  0,  0,  0,  0,  0,  0,  0,  0,  0,  0,  0,  0,  0,  0,  0,  0,  0,  0,  0,  0,  0,  0,  0,  0,  0,  0,  0,  0,  0,  0,  0,  0|];
l =     [  3,  1,  3,  3, 10, 11,  6,  7,  2,  5,  4,  8, 10,  6,  7,  7, 10, 10,  7, 11, 11,  5,  1,  7,  8,  3,  3,  1, 11,  6, 10, 10,  8,  8,  6,  1,  8,  8, 11,  9];
a =     [ 17, 18, 24, 17, 34, 43, 13, 16, 21, 17, 22, 25, 41, 13, 22, 30, 27, 40, 16, 16, 47, 39, 41, 59, 49, 74, 40, 60, 52, 50, 61, 42, 60, 46, 55, 70, 47, 57, 44, 42];
b =     [ 39, 52, 46, 36, 64, 61, 29, 55, 59, 37, 60, 64, 57, 45, 60, 66, 62, 72, 45, 41,115, 93, 89,109, 92,117, 83,104,120,116,102, 95,103,102,106,121,103,102, 85, 94];
s =     [ 10, 14, 13, 13, 12, 11, 13, 14, 16, 12, 11, 14, 16, 12, 16, 10, 17, 14, 19, 16, 10, 14, 13, 13, 12, 11, 13, 14, 16, 12, 11, 14, 16, 12, 16, 10, 17, 14, 19, 16];
q =     [  3,  1,  3,  4,  2,  4,  4,  3,  1,  4,  4,  4,  3,  2,  1,  4,  3,  4,  2,  1, -3, -1, -3, -4, -2, -4, -4, -3, -1, -4, -4, -4, -3, -2, -1, -4, -3, -4, -2, -1];
